sat
(:card2bv-rewrites        6
 :max-memory              28.17
 :memory                  18.60
 :num-allocs              1537449
 :rlimit-count            40969
 :sat-backjumps           201
 :sat-conflicts           201
 :sat-decisions           442
 :sat-minimized-lits      224
 :sat-mk-clause-2ary      2580
 :sat-mk-clause-nary      9976
 :sat-mk-var              2850
 :sat-propagations-2ary   8848
 :sat-propagations-nary   18147
 :sat-subs-resolution-dyn 27
 :time                    0.02
 :total-time              0.04)
